%-----------------------------------------------------------------------------%
% Dual Arm Multi Capacity Multi Tool Scheduling / Routing
% Assembly Configuration
% Auto Generated by python script, authored by Johan Ludde Wessen 
%-----------------------------------------------------------------------------%


task_durations = [|27, 25, 30, 27, 24, 28, 35, 30, 27, 26, 52, 50, 43, 59, 56, 62, 59, 44, 61, 52, 27, 29, 32, 31,  7,  6,  7,  6,  5,  5,  5,  5,  8
                  |32, 33, 28, 24, 22, 24, 29, 26, 32, 26, 43, 49, 51, 53, 63, 60, 62, 46, 58, 46, 24, 25, 34, 28,  6,  4,  6,  4,  6,  4,  6,  5,  6
                  |];


TRAY_TASKS = 1..8;
CAMERA_TASKS = 21..24;
OUTPUT_TASKS = { 20 };


empty_gripper_tasks = 25..33;


gripper_pick_tasks_orders = [|1, 11, -1
|2, 12, -1
|3, 13, -1
|4, 14, -1
|9, 19, -1
|10, 20, -1
|];

suction_pick_tasks_orders = [|5, 21, 15, -1
|6, 22, 16, -1
|7, 23, 17, -1
|8, 24, 18, -1
|];

fixture_task_orders = [|11, 25, 15, 29, 12, 26, 16, 30, 13, 27, 9, -1
|17, 31, 14, 28, 18, 32, 19, 33, 10, -1, -1, -1
|];

